data;
param T := 15750;
param N := 28;
param W := 
[0] 7298
[1] 5628
[2] 6212
[3] 272
[4] 2367
[5] 2659
[6] 8920
[7] 2517
[8] 8938
[9] 6951
[10] 9710
[11] 8361
[12] 36
[13] 1256
[14] 7760
[15] 379
[16] 454
[17] 8196
[18] 7159
[19] 197
[20] 3812
[21] 669
[22] 4873
[23] 3389
[24] 4146
[25] 810
[26] 2444
[27] 8177
;
end;